p cnf 66 240
-2 1 0
-2 1 0
-1 2 0
3 4 -5 0
-3 -4 -5 0
3 -4 5 0
-3 4 5 0
-6 -2 0
-6 5 0
2 -5 6 0
7 -4 -8 0
-7 4 -8 0
7 4 8 0
-7 -4 8 0
-1 8 -9 0
1 -8 -9 0
-1 -8 9 0
1 8 9 0
-10 -6 0
-10 -9 0
6 9 10 0
-7 12 -13 0
7 -12 -13 0
-7 -12 13 0
7 12 13 0
-14 -13 0
-14 -5 0
13 5 14 0
-15 -11 0
-15 -14 0
11 14 15 0
10 15 -16 0
-10 -15 -16 0
10 -15 16 0
-10 15 16 0
-1 -5 -17 0
1 5 -17 0
-1 5 17 0
1 -5 17 0
-18 -14 0
-18 17 0
14 -17 18 0
19 -5 0
19 3 0
5 -3 -19 0
-18 19 -20 0
18 -19 -20 0
-18 -19 20 0
18 19 20 0
-21 20 0
-21 4 0
-20 -4 21 0
-22 -17 0
-22 5 0
17 -5 22 0
-23 3 -24 0
23 -3 -24 0
-23 -3 24 0
23 3 24 0
-14 1 -26 0
14 -1 -26 0
-14 -1 26 0
14 1 26 0
25 -26 -27 0
-25 26 -27 0
25 26 27 0
-25 -26 27 0
28 3 0
28 -27 0
-3 27 -28 0
29 24 0
29 -28 0
-24 28 -29 0
-30 -22 0
-30 29 0
22 -29 30 0
31 -21 0
31 -30 0
21 30 -31 0
32 16 0
32 31 0
-16 -31 -32 0
-34 -13 0
-34 4 0
13 -4 34 0
33 -34 -35 0
-33 34 -35 0
33 34 35 0
-33 -34 35 0
32 35 -36 0
-32 -35 -36 0
32 -35 36 0
-32 35 36 0
-37 -1 0
-37 -14 0
1 14 37 0
38 -4 0
38 -37 0
4 37 -38 0
39 14 0
39 -25 0
-14 25 -39 0
38 39 -40 0
-38 -39 -40 0
38 -39 40 0
-38 39 40 0
41 -27 0
41 8 0
27 -8 -41 0
-42 -40 0
-42 41 0
40 -41 42 0
-43 -4 0
-43 37 0
4 -37 43 0
-44 -43 0
-44 43 0
45 -19 0
45 -1 0
19 1 -45 0
46 -4 0
46 27 0
4 -27 -46 0
47 18 0
47 -46 0
-18 46 -47 0
-13 -48 -49 0
13 48 -49 0
-13 48 49 0
13 -48 49 0
-50 -49 0
-50 -23 0
49 23 50 0
-51 8 0
-51 -50 0
-8 50 51 0
-52 -47 0
-52 51 0
47 -51 52 0
45 52 -53 0
-45 -52 -53 0
45 -52 53 0
-45 52 53 0
54 1 0
54 -19 0
-1 19 -54 0
-55 54 0
-55 25 0
-54 -25 55 0
25 43 -56 0
-25 -43 -56 0
25 -43 56 0
-25 43 56 0
57 -56 0
57 -43 0
56 43 -57 0
-58 -55 0
-58 -57 0
55 57 58 0
59 -53 0
59 58 0
53 -58 -59 0
60 7 0
60 -17 0
-7 17 -60 0
61 -25 0
61 -37 0
25 37 -61 0
-62 -60 0
-62 -61 0
60 61 62 0
-59 -62 -63 0
59 62 -63 0
-59 62 63 0
59 -62 63 0
64 -44 0
64 -63 0
44 63 -64 0
-65 42 0
-65 64 0
-42 -64 65 0
-66 -36 0
-66 -65 0
36 65 66 0
10 -11 23 12 8 -25 0
35 -45 58 -6 -50 0
48 50 0
48 -7 -10 66 0
-41 33 59 0
43 4 27 -66 -63 0
-35 -28 -21 40 0
-39 -59 -18 64 0
14 10 65 -33 -38 -26 0
4 33 -22 0
-7 27 61 0
52 63 0
-11 33 55 -40 39 0
-4 -23 0
-29 -16 -2 0
-12 20 -45 -44 62 -27 0
-5 -1 63 0
-29 39 38 9 44 34 0
63 -33 -39 31 0
29 -47 0
37 -27 62 0
15 -26 17 -45 41 24 0
-31 12 -37 33 0
20 28 1 0
-44 -57 16 -37 39 0
25 7 38 -20 0
-7 -15 -49 12 -62 -20 0
-13 29 -20 -47 -37 0
-10 -9 -40 0
2 24 0
16 -63 47 -44 0
-37 59 -15 28 10 0
-16 25 -54 0
-11 66 0
46 29 32 9 53 0
43 -34 0
-53 35 29 -46 0
20 14 48 -66 -12 0
-36 -20 -41 13 0
-59 -54 -55 63 -24 0
49 -50 -29 0
64 56 -17 -66 0
-12 53 40 47 -56 -11 0
-45 -44 0
-46 51 -1 -34 -61 21 0
-6 9 48 22 -59 -38 0
-37 -28 0
66 -38 -25 0
51 53 -48 45 5 -31 0
-61 -5 -40 -52 0
-21 -19 28 0
2 35 58 8 -65 -26 0
-42 -61 -22 0
49 -10 0
21 -15 52 55 -37 0
66 0
